s SATISFIABLE
a x_0_0	5
a x_0_1	3
a x_0_2	6
a x_0_3	8
a x_0_4	2
a x_0_5	7
a x_0_6	9
a x_0_7	4
a x_0_8	1
a x_1_0	1
a x_1_1	7
a x_1_2	2
a x_1_3	9
a x_1_4	6
a x_1_5	4
a x_1_6	3
a x_1_7	5
a x_1_8	8
a x_2_0	8
a x_2_1	9
a x_2_2	4
a x_2_3	1
a x_2_4	5
a x_2_5	3
a x_2_6	2
a x_2_7	6
a x_2_8	7
a x_3_0	7
a x_3_1	1
a x_3_2	5
a x_3_3	3
a x_3_4	4
a x_3_5	9
a x_3_6	8
a x_3_7	2
a x_3_8	6
a x_4_0	6
a x_4_1	4
a x_4_2	3
a x_4_3	7
a x_4_4	8
a x_4_5	2
a x_4_6	1
a x_4_7	9
a x_4_8	5
a x_5_0	9
a x_5_1	2
a x_5_2	8
a x_5_3	5
a x_5_4	1
a x_5_5	6
a x_5_6	7
a x_5_7	3
a x_5_8	4
a x_6_0	4
a x_6_1	8
a x_6_2	1
a x_6_3	2
a x_6_4	9
a x_6_5	5
a x_6_6	6
a x_6_7	7
a x_6_8	3
a x_7_0	3
a x_7_1	6
a x_7_2	9
a x_7_3	4
a x_7_4	7
a x_7_5	1
a x_7_6	5
a x_7_7	8
a x_7_8	2
a x_8_0	2
a x_8_1	5
a x_8_2	7
a x_8_3	6
a x_8_4	3
a x_8_5	8
a x_8_6	4
a x_8_7	1
a x_8_8	9
a
